Trabalho_1/exemplos/lp/mathworks_40.lp
min: x0 + x1 + x2 + x3 + x4 + x5 + x6 + x7 + x8 + x9 + x10 + x11 ; 

+ 2 x2 + 1 x3 + 1 x4 + 1 x5 + 3 x8 + 3 x9 + 2 x10 + 5 x11  >=  90 ;
+ 1 x3 + 1 x4 + 3 x6 + 2 x7 + 1 x8 + 2 x10  >=  111 ;
+ 1 x0 + 1 x3 + 2 x5 + 1 x7 + 1 x9  >=  55 ;
+ 1 x0 + 2 x1 + 1 x2 + 1 x4  >=  30 ;
