Trabalho 1/examplos/program/mathworks_40.txt
1 4
90 8 
111 12 
55 16 
30 20
